32	3
16	16	14
0	0	0	0	2	2	4
2	0	0	0	1	3
8	0	0	0	2	6	9
2	0	0	1	2	5	7
2	2	0	0	3	8	9	10
9	0	0	0	2	7	8
7	5	0	1	2	10	11
10	11	6	0	2	11	12
5	0	0	0	2	11	12
5	0	1	0	3	12	14	17
3	0	0	0	4	13	14	16	17
5	0	0	0	2	13	16
4	0	0	0	1	15
9	1	0	1	1	15
8	0	0	0	3	18	19	23
5	0	0	1	3	18	19	23
5	0	0	0	2	18	23
8	4	0	0	1	20
4	0	0	0	1	20
2	0	0	0	1	21
9	0	0	0	3	22	25	26
2	0	0	0	2	24	27
4	0	0	0	2	24	27
7	0	0	10	3	28	29	31
7	0	5	0	2	28	31
5	0	3	0	2	28	29
8	0	4	0	2	30	31
5	0	5	0	1	30
7	0	0	7	1	30
9	1	0	0	1	32
2	0	0	0	1	32
0	0	0	0	0
